
******************************************************************************
This program contains Ipopt, a library for large-scale nonlinear optimization.
 Ipopt is released as open source code under the Eclipse Public License (EPL).
         For more information visit http://projects.coin-or.org/Ipopt
******************************************************************************

This is Ipopt version 3.12.13, running with linear solver ma57.

Starting derivative checker for first derivatives.

* jac_g [   97,    0] = -3.4484227645756108e-02 v  ~ -3.4929137804340371e-02  [ 4.449e-04]

Derivative checker detected 1 error(s).

Number of nonzeros in equality constraint Jacobian...:        0
Number of nonzeros in inequality constraint Jacobian.:     9144
Number of nonzeros in Lagrangian Hessian.............:       21

Total number of variables............................:        6
                     variables with only lower bounds:        0
                variables with lower and upper bounds:        6
                     variables with only upper bounds:        0
Total number of equality constraints.................:        0
Total number of inequality constraints...............:     1524
        inequality constraints with only lower bounds:        0
   inequality constraints with lower and upper bounds:        0
        inequality constraints with only upper bounds:     1524

iter    objective    inf_pr   inf_du lg(mu)  ||d||  lg(rg) alpha_du alpha_pr  ls
   0  9.0015470e-02 0.00e+00 9.75e+00   0.0 0.00e+00    -  0.00e+00 0.00e+00   0
   1  8.9672222e-02 0.00e+00 3.00e-02  -5.1 2.70e-03    -  9.70e-01 1.00e+00f  1
   2  8.2761823e-02 0.00e+00 1.09e-02  -2.7 1.78e-01    -  6.37e-01 7.19e-01h  1
   3  7.8441530e-02 0.00e+00 1.85e-04  -3.0 3.62e-02    -  9.90e-01 1.00e+00h  1
   4  7.1075408e-02 0.00e+00 1.10e-03  -3.3 9.80e-02    -  9.93e-01 9.42e-01h  1
   5  6.9810290e-02 0.00e+00 9.47e-05  -4.3 3.41e-02    -  9.95e-01 1.00e+00h  1
   6  6.9314649e-02 0.00e+00 1.75e-05  -6.0 2.30e-02    -  1.00e+00 9.92e-01h  1
   7  6.9268317e-02 0.00e+00 8.83e-07  -7.9 4.78e-03    -  9.94e-01 1.00e+00h  1
   8  6.9267455e-02 0.00e+00 5.87e-12 -11.0 1.42e-04    -  1.00e+00 1.00e+00h  1

Number of Iterations....: 8

                                   (scaled)                 (unscaled)
Objective...............:   6.9267455073330098e-02    6.9267455073330098e-02
Dual infeasibility......:   5.8744284958756472e-12    5.8744284958756472e-12
Constraint violation....:   0.0000000000000000e+00    0.0000000000000000e+00
Complementarity.........:   7.8391272152074307e-10    7.8391272152074307e-10
Overall NLP error.......:   7.8391272152074307e-10    7.8391272152074307e-10


Number of objective function evaluations             = 9
Number of objective gradient evaluations             = 9
Number of equality constraint evaluations            = 0
Number of inequality constraint evaluations          = 9
Number of equality constraint Jacobian evaluations   = 0
Number of inequality constraint Jacobian evaluations = 9
Number of Lagrangian Hessian evaluations             = 8
Total CPU secs in IPOPT (w/o function evaluations)   =      0.038
Total CPU secs in NLP function evaluations           =      0.021

EXIT: Optimal Solution Found.
